FLOW,20,5,1
1,58,0,16,2,23,3,71,4,97
1,14,0,42,2,44,3,99,4,77
1,33,0,36,4,17,3,48,2,56
1,3,0,40,2,5,3,94,4,1
1,26,0,85,3,85,4,3,2,83
0,49,1,98,3,48,2,49,4,45
1,62,0,62,2,59,4,88,3,10
0,92,1,73,2,75,4,1,3,18
0,58,1,79,3,67,4,5,2,90
0,10,1,25,3,90,2,29,4,2
0,12,1,31,2,2,4,8,3,79
1,9,0,34,3,56,2,16,4,16
0,18,1,98,4,71,2,3,3,23
1,9,0,17,3,36,2,15,4,27
1,5,0,62,4,73,2,41,3,52
0,30,1,1,3,6,4,63,2,40
1,27,0,19,4,40,2,25,3,15
1,29,0,49,3,34,2,50,4,5
0,73,1,59,4,64,2,44,3,92
1,30,0,5,4,9,2,5,3,47
